c --- [ banner ] -------------------------------------------------------------
c 
c CaDiCaL Radically Simplified CDCL SAT Solver
c Copyright (c) 2016-2021 A. Biere, M. Fleury, N. Froleyks
c 
c Version 1.5.2 ca9bff05c11bde5eae4912f9932871d1527e61d8
c g++ (GCC) 9.3.0 -Wall -Wextra -O3 -DNDEBUG
c Sun May 1 02:23:23 EDT 2022 Linux gra-login1 3.10.0-1160.59.1.el7.x86_64 x86_64
c 
c --- [ limit ] --------------------------------------------------------------
c 
c setting conflict limit to 200000 conflicts (due to '200000')
c 
c --- [ parsing input ] ------------------------------------------------------
c 
c reading DIMACS file from '12.cubes859.adj'
c opening file to read '12.cubes859.adj'
c found 'p cnf 5320 924209' header
c parsed 924209 clauses in 9.23 seconds process time
c closing file '12.cubes859.adj'
c after reading 686668107 bytes 654.9 MB
c 
c --- [ options ] ------------------------------------------------------------
c 
c all options are set to their default value
c 
c --- [ solving ] ------------------------------------------------------------
c 
c time measured in process time since initialization
c 
c  seconds   reductions  redundant  irredundant
c          MB    restarts       trail      variables
c           level   conflicts       glue        remaining
c 
c *  9.23 691  0 0   0    0    0  0% 0 923580 4047 76%
c {  9.75 718  0 0   0    0    0  0% 0 923580 4047 76%
c i 10.27 739 102 0   0   21   20 46% 4 923580 4013 75%
c i 11.28 752 83 0  11   74   55 47% 13 923580 4000 75%
c i 11.28 752 82 0  12   75   55 47% 13 923580 3999 75%
c i 11.43 754 86 0  18   94   71 47% 19 923580 3998 75%
c i 11.45 754 85 0  18   95   71 47% 19 923580 3997 75%
c i 11.65 755 78 0  27  145  102 45% 18 923580 3988 75%
c i 11.70 755 83 0  29  156  112 46% 22 923580 3979 75%
c i 11.85 755 92 0  36  189  139 46% 23 923580 3972 75%
c i 11.94 755 88 0  42  213  158 47% 24 923580 3963 74%
c i 12.05 755 88 0  46  226  170 47% 25 923580 3930 74%
c - 14.50 728 80 1  60  300  231 48% 26 108262 3914 74%
c i 14.61 681 80 1  71  349  271 49% 28 108262 3913 74%
c i 14.61 681 79 1  71  350  271 49% 28 108262 3912 74%
c i 14.68 681 77 1  83  410  319 49% 29 108262 3903 73%
c i 14.69 681 74 1  83  434  330 49% 27 108262 3888 73%
c i 14.70 681 74 1  83  436  331 49% 27 108262 3887 73%
c i 14.71 681 74 1  83  442  336 49% 27 108262 3885 73%
c i 14.72 681 74 1  83  444  336 49% 27 108262 3883 73%
c 
c  seconds   reductions  redundant   irredundant
c          MB    restarts       trail       variables
c           level   conflicts       glue         remaining
c 
c i 14.77 681 78 1  86  462  352 49% 29 108262 3881 73%
c i 14.84 681 79 1  99  519  400 49% 31 108262 3880 73%
c i 14.89 681 79 1 105  539  416 49% 32 108262 3879 73%
c i 14.99 681 76 1 116  646  506 49% 32 108262 3878 73%
c i 15.11 681 65 1 138  916  704 51% 31 108262 3877 73%
c - 15.27 723 65 2 139  920  621 51% 31 107752 3877 73%
c } 15.32 723 66 2 157 1000  693 51% 33 107752 3877 73%
c [ 15.32 723  0 2 157 1000  693  0% 0 107752 3877 73%
c O 15.32 723 17 2 157 1002  695 44% 17 107752 3877 73%
c i 15.35 723 15 2 157 1055  721 56% 12 107752 3876 73%
c i 15.35 723 16 2 157 1112  743 57% 14 107752 3875 73%
c i 15.35 723 17 2 157 1129  749 56% 14 107752 3874 73%
c i 15.41 723 15 2 157 1560  924 57% 13 107752 3873 73%
c i 15.41 723 15 2 157 1562  925 57% 13 107752 3872 73%
c i 15.41 723 15 2 157 1591  939 56% 13 107752 3871 73%
c i 15.42 723 15 2 157 1598  943 56% 13 107752 3870 73%
c i 15.42 723 15 2 157 1639  960 56% 13 107752 3869 73%
c i 15.42 723 15 2 157 1641  961 56% 13 107752 3868 73%
c i 15.42 723 15 2 157 1658  971 56% 13 107752 3867 73%
c - 15.54 723 15 3 157 1849  766 56% 14 107722 3867 73%
c 
c  seconds   reductions  redundant   irredundant
c          MB    restarts       trail       variables
c           level   conflicts       glue         remaining
c 
c i 15.56 723 15 3 157 1909  796 56% 14 107722 3866 73%
c i 15.57 723 16 3 157 1981  824 56% 14 107722 3865 73%
c i 15.58 723 16 3 158 2040  857 56% 14 107722 3864 73%
c i 15.60 723 17 3 158 2203  939 56% 15 107722 3863 73%
c i 15.61 723 17 3 158 2241  958 56% 15 107722 3862 73%
c i 15.63 723 17 3 158 2437 1062 56% 15 107722 3861 73%
c i 15.69 723 18 3 158 2816 1255 56% 15 107722 3860 73%
c i 15.70 723 18 3 158 2899 1284 56% 15 107722 3859 73%
c ] 15.71 723 18 3 158 3000 1337 56% 15 107722 3859 73%
c { 15.71 723 66 3 158 3000 1337 51% 33 107722 3859 73%
c F 15.83 722 66 3 160 3005 1341  5% 33 107698 3859 73%
c i 15.83 722 66 3 160 3005 1341  5% 33 107698 3833 72%
c i 15.85 722 65 3 161 3015 1350 31% 33 107698 3832 72%
c i 15.86 722 65 3 161 3027 1360 35% 33 107698 3831 72%
c i 15.87 722 64 3 161 3060 1391 35% 33 107698 3830 72%
c - 15.95 682 63 4 161 3087 1042 36% 33 73432 3830 72%
c i 15.98 682 62 4 161 3119 1063 37% 32 73432 3829 72%
c i 15.98 682 62 4 161 3129 1072 36% 32 73432 3828 72%
c i 15.99 682 62 4 161 3159 1097 36% 32 73432 3827 72%
c i 15.99 682 62 4 161 3173 1106 36% 32 73432 3826 72%
c 
c  seconds   reductions  redundant   irredundant
c          MB    restarts       trail      variables
c           level   conflicts       glue        remaining
c 
c i 16.00 682 59 4 161 3240 1151 36% 31 73432 3825 72%
c - 16.21 682 39 5 162 4588 1448 39% 23 73417 3825 72%
c d 16.35 682 35 5 162 5000 1683 39% 22 55636 3806 72%
c 2 16.38 682 35 5 162 5000 4260 39% 22 55576 3802 71%
c p 17.55 682 35 5 162 5000 16882 39% 22 55576 3617 68%
c d 17.62 682 35 5 162 5000 15095 39% 22 45187 3608 68%
c d 17.64 682 35 5 162 5000 15087 39% 22 42929 3606 68%
c # 17.76 682 30 5 162 6006 15554 39% 19 42929 3606 68%
c - 17.83 682 29 6 162 6392 2084 38% 19 42929 3606 68%
c } 17.89 682 27 6 162 7000 2516 38% 18 42929 3606 68%
c [ 17.89 682 18 6 162 7000 2516 77% 15 42929 3606 68%
c - 18.03 682 17 7 163 8493 2519 60% 14 42929 3606 68%
c I 18.19 682 16 7 164 10010 3298 53% 14 42929 3606 68%
c - 18.40 682 19 8 165 10894 2772 50% 16 42929 3606 68%
c - 18.71 682 20 9 167 13594 2952 47% 16 42929 3606 68%
c ] 18.87 682 20 9 167 15000 3850 45% 17 42929 3606 68%
c { 18.87 682 27 9 167 15000 3850 38% 18 42929 3606 68%
c 2 18.89 682 27 9 167 15000 6352 38% 18 42918 3606 68%
c p 19.40 682 27 9 167 15000 16332 38% 18 42918 3605 68%
c B 19.42 682 27 9 167 15013 16342 38% 18 42918 3605 68%
c 
c  seconds   reductions    redundant   irredundant
c          MB    restarts         trail      variables
c           level    conflicts        glue        remaining
c 
c s 19.56 682 26 9 178 15671 16357 38% 18 41355 3605 68%
c v 19.79 682 26 9 178 15671 16357 38% 18 41293 3605 68%
c t 19.81 682 26 9 178 15671 16292 38% 18 41226 3605 68%
c e 19.90 682 26 9 178 15671 6006 38% 18 35166 544 10%
c s 19.97 682 26 9 178 15671 6006 38% 18 34972 544 10%
c - 20.22 682 25 10 183 16594 3458 81% 17 34972 544 10%
c i 20.25 682 25 10 183 16731 3528 81% 17 34972 520 10%
c - 20.70 682 22 11 252 19894 3365 80% 16 31017 515 10%
c i 20.84 682 22 11 286 20545 3753 80% 16 31017 514 10%
c W 20.93 682 21 11 289 21018 3946 80% 16 31015 514 10%
c } 21.02 682 21 11 292 21957 4532 81% 15 31015 514 10%
c 1 21.02 682 21 11 292 21957 4532 81% 15 31015 514 10%
c 
c --- [ writing output ] -----------------------------------------------------
c 
c writing simplified CNF to DIMACS file 'simp/12.cubes859.adj.simp1'
c * 21.02 682 21 11 292 21957 4532 81% 15 31015 514 10%
c opening file to write 'simp/12.cubes859.adj.simp1'
c writing 'p cnf 5320 31015' header
c closing file 'simp/12.cubes859.adj.simp1'
c after writing 10600267 bytes 10.1 MB
c wrote 31015 clauses in 0.08 seconds process time
c 
c --- [ writing extension ] --------------------------------------------------
c 
c writing extension stack to 'simp/12.cubes859.adj.ext1'
c opening file to write 'simp/12.cubes859.adj.ext1'
c closing file 'simp/12.cubes859.adj.ext1'
c after writing 181118 bytes 0.2 MB
c wrote 8156 witnesses in 0.00 seconds process time
c 
c --- [ result ] -------------------------------------------------------------
c 
s SATISFIABLE
c 
c --- [ run-time profiling ] -------------------------------------------------
c 
c process time taken by individual solving procedures
c (percentage relative to process time for solving)
c 
c         9.34   79.27% search
c         9.23   78.31% parse
c         7.41   62.85% unstable
c         2.44   20.73% simplify
c         1.68   14.28% probe
c         1.37   11.60% stable
c         0.52    4.44% lucky
c         0.24    2.06% vivify
c         0.18    1.50% elim
c         0.12    1.00% subsume
c         0.04    0.38% walk
c         0.04    0.31% ternary
c   =================================
c        11.79   55.87% solve
c 
c last line shows process time for solving
c (percentage relative to total process time)
c 
c --- [ statistics ] ---------------------------------------------------------
c 
c chronological:              3950        17.99 %  of conflicts
c conflicts:                 21957      1862.90    per second
c decisions:                 43620      3700.86    per second
c eliminated:                 3061        57.54 %  of all variables
c fixed:                      1715        32.24 %  of all variables
c learned:                   21495        97.90 %  per conflict
c learned_lits:            3034462       100.00 %  learned literals
c minimized:                     0         0.00 %  learned literals
c shrunken:                2376991        78.33 %  learned literals
c minishrunken:              87900         2.90 %  learned literals
c propagations:            3848654         0.33 M  per second
c reduced:                    7884        35.91 %  per conflict
c rephased:                      6      3659.50    interval
c restarts:                    292        75.20    interval
c stabilizing:                   2        45.54 %  of conflicts
c substituted:                  30         0.56 %  of all variables
c subsumed:                  10958         0.56 %  of all clauses
c strengthened:               3756         0.19 %  of all clauses
c ternary:                    5118         0.66 %  of resolved
c vivified:                     75         0.00 %  of all clauses
c walked:                        1     21957.00    interval
c weakened:                   6441         2.92    average size
c 
c seconds are measured in process time for solving
c 
c --- [ resources ] ----------------------------------------------------------
c 
c total process time since initialization:        21.10    seconds
c total real time since initialization:           21.12    seconds
c maximum resident set size of process:          764.50    MB
c 
c --- [ shutting down ] ------------------------------------------------------
c 
c exit 10
WARNING! DIMACS header mismatch: wrong number of variables.
============================[ Problem Statistics ]=============================
|                                                                             |
|  Number of variables:          3661                                         |
|  Number of clauses:           31021                                         |
|  Parse time:                   0.14 s                                       |
|  Simplification time:          0.00 s                                       |
|                                                                             |
============================[ Search Statistics ]====================================================
| Conflicts |          ORIGINAL         |          LEARNT          | Num Sols |      SUBGRAPHS      |
|           |    Vars  Clauses Literals |    Limit  Clauses Lit/Cl |          | Canonical Noncanon. |
=====================================================================================================
|       124 |    3568    31045  2317580 |     2000      124     50 |        0 |        19        24 |
|       315 |    3568    31086  2318071 |     2000      315     54 |        0 |        42        65 |
|       558 |    3568    31104  2318330 |     2000      558     63 |        0 |        47        83 |
|      1191 |    3568    31400  2320950 |     2000     1191     50 |        0 |       101       379 |
|      1776 |    3568    31479  2321675 |     2000     1776     53 |        0 |       114       458 |
|      2619 |    3568    31563  2322565 |     3602     1621     32 |        0 |       127       542 |
|      3860 |    3568    31665  2323551 |     3602     2862     40 |        0 |       134       644 |
=====================================================================================================
Number of solutions   : 0
Canonical subgraphs   : 172            (147 /sec)
          order  3    : 1              (166667 /sec)
          order  4    : 1              (500000 /sec)
          order  5    : 1              (250000 /sec)
          order  6    : 1              (52632 /sec)
          order  7    : 2              (10811 /sec)
          order  8    : 2              (4630 /sec)
          order  9    : 2              (2000 /sec)
          order 10    : 4              (1041 /sec)
          order 11    : 9              (528 /sec)
          order 12    : 19             (311 /sec)
          order 13    : 67             (157 /sec)
          order 14    : 49             (98 /sec)
          order 15    : 8              (117 /sec)
          order 16    : 4              (70 /sec)
          order 17    : 2              (52 /sec)
          order 18    : 0              (-nan /sec)
          order 19    : 0              (-nan /sec)
          order 20    : 0              (-nan /sec)
          order 21    : 0              (-nan /sec)
Noncanonical subgraphs: 966            (3619 /sec)
          order  3    : 0              (-nan /sec)
          order  4    : 0              (-nan /sec)
          order  5    : 0              (-nan /sec)
          order  6    : 0              (-nan /sec)
          order  7    : 0              (-nan /sec)
          order  8    : 0              (-nan /sec)
          order  9    : 0              (-nan /sec)
          order 10    : 0              (-nan /sec)
          order 11    : 0              (-nan /sec)
          order 12    : 0              (-nan /sec)
          order 13    : 192            (12936 /sec)
          order 14    : 487            (3464 /sec)
          order 15    : 238            (3562 /sec)
          order 16    : 31             (3350 /sec)
          order 17    : 18             (508 /sec)
          order 18    : 0              (-nan /sec)
          order 19    : 0              (-nan /sec)
          order 20    : 0              (-nan /sec)
Canonicity checking   : 1.17274 s
Noncanonicity checking: 0.266926 s
Total canonicity time : 1.43967 s
database reductions   : 2
restarts              : 27
conflicts             : 5018           (2526 /sec)
decisions             : 20046          (0.00 % random) (10090 /sec)
propagations          : 222098         (111792 /sec)
conflict literals     : 250540         (51.00 % deleted)
actual reward         : 0.255727
Memory used           : 22.00 MB
CPU time              : 1.98671 s

UNSATISFIABLE
